	Costo	Iter.	Tiempo
1	530,29	214	24,114
2	882,1	110	22,754
3	842,97	237	101,536
4	1068,46	282	277,572
5	1381,3	190	331,942
6	572,31	216	22,072
7	932,61	140	69,515
8	871,18	283	164,728
9	1206,99	163	1233,957
10	1486,21	188	8411,852
11	1230	409	359,675
12	820,96	440	211,089
13	1651,08	118	106,224
14	867,17	309	153,959
